<?xml version='1.0' encoding='utf-8' standalone='yes'?>
<SchedulingPeriod ID='sprint01' xmlns:xsi='http://www.w3.org/2001/XMLSchema-instance' xsi:noNamespaceSchemaLocation='competition.xsd'>
	<CourseTypes>
	<Course ID='00000'>
		<StartTime>'20:00:00</StartTime>
		<EndTime>'21:50:00</EndTime>
		<Description>CS215</Description>
	</Course>
	<Course ID='00001'>
		<StartTime>'11:00:00</StartTime>
		<EndTime>'12:50:00</EndTime>
		<Description>CS160</Description>
	</Course>
	<Course ID='00002'>
		<StartTime>'15:00:00</StartTime>
		<EndTime>'16:50:00</EndTime>
		<Description>CS327</Description>
	</Course>
	<Course ID='00003'>
		<StartTime>'16:00:00</StartTime>
		<EndTime>'17:50:00</EndTime>
		<Description>CS348</Description>
	</Course>
	<Course ID='00004'>
		<StartTime>'12:00:00</StartTime>
		<EndTime>'13:50:00</EndTime>
		<Description>CS138</Description>
	</Course>
	<Course ID='00005'>
		<StartTime>'17:00:00</StartTime>
		<EndTime>'18:50:00</EndTime>
		<Description>CS203</Description>
	</Course>
	<Course ID='00006'>
		<StartTime>'09:00:00</StartTime>
		<EndTime>'10:50:00</EndTime>
		<Description>CS215</Description>
	</Course>
	<Course ID='00007'>
		<StartTime>'07:00:00</StartTime>
		<EndTime>'08:50:00</EndTime>
		<Description>CS139</Description>
	</Course>
	<Course ID='00008'>
		<StartTime>'14:00:00</StartTime>
		<EndTime>'15:50:00</EndTime>
		<Description>CS479</Description>
	</Course>
	<Course ID='00009'>
		<StartTime>'07:00:00</StartTime>
		<EndTime>'08:50:00</EndTime>
		<Description>CS410</Description>
	</Course>
	<Course ID='00010'>
		<StartTime>'08:00:00</StartTime>
		<EndTime>'09:50:00</EndTime>
		<Description>CS453</Description>
	</Course>
	<Course ID='00011'>
		<StartTime>'16:00:00</StartTime>
		<EndTime>'17:50:00</EndTime>
		<Description>CS476</Description>
	</Course>
	<Course ID='00012'>
		<StartTime>'14:00:00</StartTime>
		<EndTime>'15:50:00</EndTime>
		<Description>CS116</Description>
	</Course>
	<Course ID='00013'>
		<StartTime>'07:00:00</StartTime>
		<EndTime>'08:50:00</EndTime>
		<Description>CS139</Description>
	</Course>
	<Course ID='00014'>
		<StartTime>'19:00:00</StartTime>
		<EndTime>'20:50:00</EndTime>
		<Description>CS364</Description>
	</Course>
	<Course ID='00015'>
		<StartTime>'11:00:00</StartTime>
		<EndTime>'12:50:00</EndTime>
		<Description>CS283</Description>
	</Course>
	<Course ID='00016'>
		<StartTime>'16:00:00</StartTime>
		<EndTime>'17:50:00</EndTime>
		<Description>CS100</Description>
	</Course>
	<Course ID='00017'>
		<StartTime>'17:00:00</StartTime>
		<EndTime>'18:50:00</EndTime>
		<Description>CS120</Description>
	</Course>
	<Course ID='00018'>
		<StartTime>'13:00:00</StartTime>
		<EndTime>'14:50:00</EndTime>
		<Description>CS257</Description>
	</Course>
	<Course ID='00019'>
		<StartTime>'14:00:00</StartTime>
		<EndTime>'15:50:00</EndTime>
		<Description>CS422</Description>
	</Course>
	<Course ID='00020'>
		<StartTime>'15:00:00</StartTime>
		<EndTime>'16:50:00</EndTime>
		<Description>CS321</Description>
	</Course>
	<Course ID='00021'>
		<StartTime>'14:00:00</StartTime>
		<EndTime>'15:50:00</EndTime>
		<Description>CS321</Description>
	</Course>
	<Course ID='00022'>
		<StartTime>'07:00:00</StartTime>
		<EndTime>'08:50:00</EndTime>
		<Description>CS231</Description>
	</Course>
	<Course ID='00023'>
		<StartTime>'07:00:00</StartTime>
		<EndTime>'08:50:00</EndTime>
		<Description>CS118</Description>
	</Course>
	<Course ID='00024'>
		<StartTime>'09:00:00</StartTime>
		<EndTime>'10:50:00</EndTime>
		<Description>CS313</Description>
	</Course>
	<Course ID='00025'>
		<StartTime>'13:00:00</StartTime>
		<EndTime>'14:50:00</EndTime>
		<Description>CS450</Description>
	</Course>
	<Course ID='00026'>
		<StartTime>'07:00:00</StartTime>
		<EndTime>'08:50:00</EndTime>
		<Description>CS443</Description>
	</Course>
	<Course ID='00027'>
		<StartTime>'08:00:00</StartTime>
		<EndTime>'09:50:00</EndTime>
		<Description>CS165</Description>
	</Course>
	<Course ID='00028'>
		<StartTime>'09:00:00</StartTime>
		<EndTime>'10:50:00</EndTime>
		<Description>CS497</Description>
	</Course>
	<Course ID='00029'>
		<StartTime>'20:00:00</StartTime>
		<EndTime>'21:50:00</EndTime>
		<Description>CS420</Description>
	</Course>
	<Course ID='00030'>
		<StartTime>'14:00:00</StartTime>
		<EndTime>'15:50:00</EndTime>
		<Description>CS439</Description>
	</Course>
	<Course ID='00031'>
		<StartTime>'19:00:00</StartTime>
		<EndTime>'20:50:00</EndTime>
		<Description>CS339</Description>
	</Course>
	<Course ID='00032'>
		<StartTime>'15:00:00</StartTime>
		<EndTime>'16:50:00</EndTime>
		<Description>CS237</Description>
	</Course>
	<Course ID='00033'>
		<StartTime>'14:00:00</StartTime>
		<EndTime>'15:50:00</EndTime>
		<Description>CS398</Description>
	</Course>
	<Course ID='00034'>
		<StartTime>'09:00:00</StartTime>
		<EndTime>'10:50:00</EndTime>
		<Description>CS362</Description>
	</Course>
	<Course ID='00035'>
		<StartTime>'20:00:00</StartTime>
		<EndTime>'21:50:00</EndTime>
		<Description>CS223</Description>
	</Course>
	<Course ID='00036'>
		<StartTime>'08:00:00</StartTime>
		<EndTime>'09:50:00</EndTime>
		<Description>CS210</Description>
	</Course>
	<Course ID='00037'>
		<StartTime>'16:00:00</StartTime>
		<EndTime>'17:50:00</EndTime>
		<Description>CS143</Description>
	</Course>
	<Course ID='00038'>
		<StartTime>'10:00:00</StartTime>
		<EndTime>'11:50:00</EndTime>
		<Description>CS208</Description>
	</Course>
	<Course ID='00039'>
		<StartTime>'18:00:00</StartTime>
		<EndTime>'19:50:00</EndTime>
		<Description>CS384</Description>
	</Course>
	<Course ID='00040'>
		<StartTime>'07:00:00</StartTime>
		<EndTime>'08:50:00</EndTime>
		<Description>CS458</Description>
	</Course>
	<Course ID='00041'>
		<StartTime>'13:00:00</StartTime>
		<EndTime>'14:50:00</EndTime>
		<Description>CS202</Description>
	</Course>
	<Course ID='00042'>
		<StartTime>'18:00:00</StartTime>
		<EndTime>'19:50:00</EndTime>
		<Description>CS404</Description>
	</Course>
	<Course ID='00043'>
		<StartTime>'07:00:00</StartTime>
		<EndTime>'08:50:00</EndTime>
		<Description>CS297</Description>
	</Course>
	<Course ID='00044'>
		<StartTime>'17:00:00</StartTime>
		<EndTime>'18:50:00</EndTime>
		<Description>CS292</Description>
	</Course>
	<Course ID='00045'>
		<StartTime>'16:00:00</StartTime>
		<EndTime>'17:50:00</EndTime>
		<Description>CS281</Description>
	</Course>
	<Course ID='00046'>
		<StartTime>'12:00:00</StartTime>
		<EndTime>'13:50:00</EndTime>
		<Description>CS233</Description>
	</Course>
	<Course ID='00047'>
		<StartTime>'08:00:00</StartTime>
		<EndTime>'09:50:00</EndTime>
		<Description>CS396</Description>
	</Course>
	<Course ID='00048'>
		<StartTime>'07:00:00</StartTime>
		<EndTime>'08:50:00</EndTime>
		<Description>CS342</Description>
	</Course>
	<Course ID='00049'>
		<StartTime>'14:00:00</StartTime>
		<EndTime>'15:50:00</EndTime>
		<Description>CS312</Description>
	</Course>
	<Course ID='00050'>
		<StartTime>'12:00:00</StartTime>
		<EndTime>'13:50:00</EndTime>
		<Description>CS350</Description>
	</Course>
	<Course ID='00051'>
		<StartTime>'19:00:00</StartTime>
		<EndTime>'20:50:00</EndTime>
		<Description>CS148</Description>
	</Course>
	<Course ID='00052'>
		<StartTime>'11:00:00</StartTime>
		<EndTime>'12:50:00</EndTime>
		<Description>CS482</Description>
	</Course>
	<Course ID='00053'>
		<StartTime>'11:00:00</StartTime>
		<EndTime>'12:50:00</EndTime>
		<Description>CS215</Description>
	</Course>
	<Course ID='00054'>
		<StartTime>'17:00:00</StartTime>
		<EndTime>'18:50:00</EndTime>
		<Description>CS153</Description>
	</Course>
	<Course ID='00055'>
		<StartTime>'13:00:00</StartTime>
		<EndTime>'14:50:00</EndTime>
		<Description>CS199</Description>
	</Course>
	<Course ID='00056'>
		<StartTime>'11:00:00</StartTime>
		<EndTime>'12:50:00</EndTime>
		<Description>CS115</Description>
	</Course>
	<Course ID='00057'>
		<StartTime>'15:00:00</StartTime>
		<EndTime>'16:50:00</EndTime>
		<Description>CS461</Description>
	</Course>
	<Course ID='00058'>
		<StartTime>'20:00:00</StartTime>
		<EndTime>'21:50:00</EndTime>
		<Description>CS234</Description>
	</Course>
	<Course ID='00059'>
		<StartTime>'18:00:00</StartTime>
		<EndTime>'19:50:00</EndTime>
		<Description>CS227</Description>
	</Course>
	<Course ID='00060'>
		<StartTime>'09:00:00</StartTime>
		<EndTime>'10:50:00</EndTime>
		<Description>CS233</Description>
	</Course>
	<Course ID='00061'>
		<StartTime>'12:00:00</StartTime>
		<EndTime>'13:50:00</EndTime>
		<Description>CS252</Description>
	</Course>
	<Course ID='00062'>
		<StartTime>'08:00:00</StartTime>
		<EndTime>'09:50:00</EndTime>
		<Description>CS161</Description>
	</Course>
	<Course ID='00063'>
		<StartTime>'10:00:00</StartTime>
		<EndTime>'11:50:00</EndTime>
		<Description>CS383</Description>
	</Course>
	<Course ID='00064'>
		<StartTime>'10:00:00</StartTime>
		<EndTime>'11:50:00</EndTime>
		<Description>CS172</Description>
	</Course>
	<Course ID='00065'>
		<StartTime>'14:00:00</StartTime>
		<EndTime>'15:50:00</EndTime>
		<Description>CS388</Description>
	</Course>
	<Course ID='00066'>
		<StartTime>'18:00:00</StartTime>
		<EndTime>'19:50:00</EndTime>
		<Description>CS375</Description>
	</Course>
	<Course ID='00067'>
		<StartTime>'07:00:00</StartTime>
		<EndTime>'08:50:00</EndTime>
		<Description>CS197</Description>
	</Course>
	<Course ID='00068'>
		<StartTime>'15:00:00</StartTime>
		<EndTime>'16:50:00</EndTime>
		<Description>CS330</Description>
	</Course>
	<Course ID='00069'>
		<StartTime>'12:00:00</StartTime>
		<EndTime>'13:50:00</EndTime>
		<Description>CS120</Description>
	</Course>
	</CourseTypes>
	<Contracts>
		<Contract ID='0'>
			<Description>Standard TA</Description>
			<SingleAssignmentPerDay weight='1'>true</SingleAssignmentPerDay>
			<MaxNumAssignments on='1' weight='1'>2</MaxNumAssignments>
			<MinNumAssignments on='1' weight='1'>1</MinNumAssignments>
		</Contract>
	</Contracts>
	<Tas>
		<Ta ID='0'>
			<ContractID>0</ContractID>
			<Name>Lillie, Travis</Name>
		</Ta>
		<Ta ID='1'>
			<ContractID>0</ContractID>
			<Name>Janell, Mirian</Name>
		</Ta>
		<Ta ID='2'>
			<ContractID>0</ContractID>
			<Name>So, Marshall</Name>
		</Ta>
		<Ta ID='3'>
			<ContractID>0</ContractID>
			<Name>Merrilee, Marcia</Name>
		</Ta>
		<Ta ID='4'>
			<ContractID>0</ContractID>
			<Name>Jenee, Denisha</Name>
		</Ta>
		<Ta ID='5'>
			<ContractID>0</ContractID>
			<Name>Damaris, Albertine</Name>
		</Ta>
		<Ta ID='6'>
			<ContractID>0</ContractID>
			<Name>Isidro, Nan</Name>
		</Ta>
		<Ta ID='7'>
			<ContractID>0</ContractID>
			<Name>Meridith, Bradley</Name>
		</Ta>
		<Ta ID='8'>
			<ContractID>0</ContractID>
			<Name>Vergie, Herminia</Name>
		</Ta>
		<Ta ID='9'>
			<ContractID>0</ContractID>
			<Name>Cleveland, Rossie</Name>
		</Ta>
		<Ta ID='10'>
			<ContractID>0</ContractID>
			<Name>Vicente, Eustolia</Name>
		</Ta>
		<Ta ID='11'>
			<ContractID>0</ContractID>
			<Name>Whitney, Leann</Name>
		</Ta>
		<Ta ID='12'>
			<ContractID>0</ContractID>
			<Name>Petrina, Vernita</Name>
		</Ta>
		<Ta ID='13'>
			<ContractID>0</ContractID>
			<Name>Margo, Maren</Name>
		</Ta>
		<Ta ID='14'>
			<ContractID>0</ContractID>
			<Name>Dusty, Teresita</Name>
		</Ta>
		<Ta ID='15'>
			<ContractID>0</ContractID>
			<Name>Elmira, Patsy</Name>
		</Ta>
		<Ta ID='16'>
			<ContractID>0</ContractID>
			<Name>Tina, Stanley</Name>
		</Ta>
		<Ta ID='17'>
			<ContractID>0</ContractID>
			<Name>Glinda, Sterling</Name>
		</Ta>
		<Ta ID='18'>
			<ContractID>0</ContractID>
			<Name>Ai, Amparo</Name>
		</Ta>
		<Ta ID='19'>
			<ContractID>0</ContractID>
			<Name>Samuel, Cassaundra</Name>
		</Ta>
		<Ta ID='20'>
			<ContractID>0</ContractID>
			<Name>Tamar, Donnie</Name>
		</Ta>
		<Ta ID='21'>
			<ContractID>0</ContractID>
			<Name>Zonia, Luciano</Name>
		</Ta>
		<Ta ID='22'>
			<ContractID>0</ContractID>
			<Name>Kim, Pamila</Name>
		</Ta>
		<Ta ID='23'>
			<ContractID>0</ContractID>
			<Name>Floyd, Maribel</Name>
		</Ta>
		<Ta ID='24'>
			<ContractID>0</ContractID>
			<Name>Glen, Cynthia</Name>
		</Ta>
		<Ta ID='25'>
			<ContractID>0</ContractID>
			<Name>Myrta, Ava</Name>
		</Ta>
		<Ta ID='26'>
			<ContractID>0</ContractID>
			<Name>Etsuko, Willy</Name>
		</Ta>
		<Ta ID='27'>
			<ContractID>0</ContractID>
			<Name>Minnie, Sharice</Name>
		</Ta>
		<Ta ID='28'>
			<ContractID>0</ContractID>
			<Name>Tobie, Latrice</Name>
		</Ta>
		<Ta ID='29'>
			<ContractID>0</ContractID>
			<Name>Vella, Lupe</Name>
		</Ta>
		<Ta ID='30'>
			<ContractID>0</ContractID>
			<Name>Anna, Emmie</Name>
		</Ta>
		<Ta ID='31'>
			<ContractID>0</ContractID>
			<Name>Lia, Shavonne</Name>
		</Ta>
		<Ta ID='32'>
			<ContractID>0</ContractID>
			<Name>Hillary, Micheal</Name>
		</Ta>
		<Ta ID='33'>
			<ContractID>0</ContractID>
			<Name>Bao, Callie</Name>
		</Ta>
		<Ta ID='34'>
			<ContractID>0</ContractID>
			<Name>Karole, Darell</Name>
		</Ta>
		<Ta ID='35'>
			<ContractID>0</ContractID>
			<Name>Amado, Cordell</Name>
		</Ta>
		<Ta ID='36'>
			<ContractID>0</ContractID>
			<Name>Heath, Lashay</Name>
		</Ta>
		<Ta ID='37'>
			<ContractID>0</ContractID>
			<Name>Kiyoko, Len</Name>
		</Ta>
		<Ta ID='38'>
			<ContractID>0</ContractID>
			<Name>Pasquale, Maile</Name>
		</Ta>
		<Ta ID='39'>
			<ContractID>0</ContractID>
			<Name>Tashina, Kasandra</Name>
		</Ta>
		<Ta ID='40'>
			<ContractID>0</ContractID>
			<Name>Serina, Blake</Name>
		</Ta>
		<Ta ID='41'>
			<ContractID>0</ContractID>
			<Name>Malinda, Jeanett</Name>
		</Ta>
		<Ta ID='42'>
			<ContractID>0</ContractID>
			<Name>Isela, Natisha</Name>
		</Ta>
		<Ta ID='43'>
			<ContractID>0</ContractID>
			<Name>Quyen, Antone</Name>
		</Ta>
		<Ta ID='44'>
			<ContractID>0</ContractID>
			<Name>Charmain, Julianna</Name>
		</Ta>
		<Ta ID='45'>
			<ContractID>0</ContractID>
			<Name>Albertine, Gustavo</Name>
		</Ta>
		<Ta ID='46'>
			<ContractID>0</ContractID>
			<Name>Christa, Dagmar</Name>
		</Ta>
		<Ta ID='47'>
			<ContractID>0</ContractID>
			<Name>Ronna, Gussie</Name>
		</Ta>
		<Ta ID='48'>
			<ContractID>0</ContractID>
			<Name>Branden, Myrtle</Name>
		</Ta>
		<Ta ID='49'>
			<ContractID>0</ContractID>
			<Name>Lacey, Kaylene</Name>
		</Ta>
	</Tas>
	<CoverRequirements>
		<DayOfWeekCover>
			<Day>Tuesday</Day>
			<Cover>
				<Course>00001</Course>
				<Preferred>2</Preferred>
			</Cover>
		</DayOfWeekCover>
		<DayOfWeekCover>
			<Day>Sunday</Day>
			<Cover>
				<Course>00001</Course>
				<Preferred>2</Preferred>
			</Cover>
		</DayOfWeekCover>
		<DayOfWeekCover>
			<Day>Tuesday</Day>
			<Cover>
				<Course>00004</Course>
				<Preferred>2</Preferred>
			</Cover>
		</DayOfWeekCover>
		<DayOfWeekCover>
			<Day>Sunday</Day>
			<Cover>
				<Course>00007</Course>
				<Preferred>2</Preferred>
			</Cover>
		</DayOfWeekCover>
		<DayOfWeekCover>
			<Day>Friday</Day>
			<Cover>
				<Course>00007</Course>
				<Preferred>2</Preferred>
			</Cover>
		</DayOfWeekCover>
		<DayOfWeekCover>
			<Day>Tuesday</Day>
			<Cover>
				<Course>00008</Course>
				<Preferred>1</Preferred>
			</Cover>
		</DayOfWeekCover>
		<DayOfWeekCover>
			<Day>Monday</Day>
			<Cover>
				<Course>00008</Course>
				<Preferred>1</Preferred>
			</Cover>
		</DayOfWeekCover>
		<DayOfWeekCover>
			<Day>Friday</Day>
			<Cover>
				<Course>00010</Course>
				<Preferred>2</Preferred>
			</Cover>
		</DayOfWeekCover>
		<DayOfWeekCover>
			<Day>Friday</Day>
			<Cover>
				<Course>00012</Course>
				<Preferred>1</Preferred>
			</Cover>
		</DayOfWeekCover>
		<DayOfWeekCover>
			<Day>Thursday</Day>
			<Cover>
				<Course>00012</Course>
				<Preferred>1</Preferred>
			</Cover>
		</DayOfWeekCover>
		<DayOfWeekCover>
			<Day>Wednesday</Day>
			<Cover>
				<Course>00014</Course>
				<Preferred>2</Preferred>
			</Cover>
		</DayOfWeekCover>
		<DayOfWeekCover>
			<Day>Friday</Day>
			<Cover>
				<Course>00014</Course>
				<Preferred>2</Preferred>
			</Cover>
		</DayOfWeekCover>
		<DayOfWeekCover>
			<Day>Monday</Day>
			<Cover>
				<Course>00017</Course>
				<Preferred>2</Preferred>
			</Cover>
		</DayOfWeekCover>
		<DayOfWeekCover>
			<Day>Tuesday</Day>
			<Cover>
				<Course>00017</Course>
				<Preferred>2</Preferred>
			</Cover>
		</DayOfWeekCover>
		<DayOfWeekCover>
			<Day>Monday</Day>
			<Cover>
				<Course>00018</Course>
				<Preferred>1</Preferred>
			</Cover>
		</DayOfWeekCover>
		<DayOfWeekCover>
			<Day>Sunday</Day>
			<Cover>
				<Course>00019</Course>
				<Preferred>1</Preferred>
			</Cover>
		</DayOfWeekCover>
		<DayOfWeekCover>
			<Day>Monday</Day>
			<Cover>
				<Course>00019</Course>
				<Preferred>1</Preferred>
			</Cover>
		</DayOfWeekCover>
		<DayOfWeekCover>
			<Day>Sunday</Day>
			<Cover>
				<Course>00020</Course>
				<Preferred>2</Preferred>
			</Cover>
		</DayOfWeekCover>
		<DayOfWeekCover>
			<Day>Wednesday</Day>
			<Cover>
				<Course>00020</Course>
				<Preferred>2</Preferred>
			</Cover>
		</DayOfWeekCover>
		<DayOfWeekCover>
			<Day>Friday</Day>
			<Cover>
				<Course>00021</Course>
				<Preferred>1</Preferred>
			</Cover>
		</DayOfWeekCover>
		<DayOfWeekCover>
			<Day>Tuesday</Day>
			<Cover>
				<Course>00022</Course>
				<Preferred>1</Preferred>
			</Cover>
		</DayOfWeekCover>
		<DayOfWeekCover>
			<Day>Tuesday</Day>
			<Cover>
				<Course>00023</Course>
				<Preferred>1</Preferred>
			</Cover>
		</DayOfWeekCover>
		<DayOfWeekCover>
			<Day>Thursday</Day>
			<Cover>
				<Course>00023</Course>
				<Preferred>1</Preferred>
			</Cover>
		</DayOfWeekCover>
		<DayOfWeekCover>
			<Day>Monday</Day>
			<Cover>
				<Course>00024</Course>
				<Preferred>2</Preferred>
			</Cover>
		</DayOfWeekCover>
		<DayOfWeekCover>
			<Day>Saturday</Day>
			<Cover>
				<Course>00024</Course>
				<Preferred>2</Preferred>
			</Cover>
		</DayOfWeekCover>
		<DayOfWeekCover>
			<Day>Sunday</Day>
			<Cover>
				<Course>00026</Course>
				<Preferred>1</Preferred>
			</Cover>
		</DayOfWeekCover>
		<DayOfWeekCover>
			<Day>Wednesday</Day>
			<Cover>
				<Course>00026</Course>
				<Preferred>1</Preferred>
			</Cover>
		</DayOfWeekCover>
		<DayOfWeekCover>
			<Day>Sunday</Day>
			<Cover>
				<Course>00028</Course>
				<Preferred>2</Preferred>
			</Cover>
		</DayOfWeekCover>
		<DayOfWeekCover>
			<Day>Monday</Day>
			<Cover>
				<Course>00034</Course>
				<Preferred>2</Preferred>
			</Cover>
		</DayOfWeekCover>
		<DayOfWeekCover>
			<Day>Sunday</Day>
			<Cover>
				<Course>00036</Course>
				<Preferred>2</Preferred>
			</Cover>
		</DayOfWeekCover>
		<DayOfWeekCover>
			<Day>Sunday</Day>
			<Cover>
				<Course>00037</Course>
				<Preferred>2</Preferred>
			</Cover>
		</DayOfWeekCover>
		<DayOfWeekCover>
			<Day>Friday</Day>
			<Cover>
				<Course>00038</Course>
				<Preferred>2</Preferred>
			</Cover>
		</DayOfWeekCover>
		<DayOfWeekCover>
			<Day>Monday</Day>
			<Cover>
				<Course>00038</Course>
				<Preferred>2</Preferred>
			</Cover>
		</DayOfWeekCover>
		<DayOfWeekCover>
			<Day>Monday</Day>
			<Cover>
				<Course>00039</Course>
				<Preferred>1</Preferred>
			</Cover>
		</DayOfWeekCover>
		<DayOfWeekCover>
			<Day>Wednesday</Day>
			<Cover>
				<Course>00039</Course>
				<Preferred>1</Preferred>
			</Cover>
		</DayOfWeekCover>
		<DayOfWeekCover>
			<Day>Tuesday</Day>
			<Cover>
				<Course>00040</Course>
				<Preferred>1</Preferred>
			</Cover>
		</DayOfWeekCover>
		<DayOfWeekCover>
			<Day>Monday</Day>
			<Cover>
				<Course>00041</Course>
				<Preferred>2</Preferred>
			</Cover>
		</DayOfWeekCover>
		<DayOfWeekCover>
			<Day>Friday</Day>
			<Cover>
				<Course>00042</Course>
				<Preferred>1</Preferred>
			</Cover>
		</DayOfWeekCover>
		<DayOfWeekCover>
			<Day>Monday</Day>
			<Cover>
				<Course>00042</Course>
				<Preferred>1</Preferred>
			</Cover>
		</DayOfWeekCover>
		<DayOfWeekCover>
			<Day>Friday</Day>
			<Cover>
				<Course>00044</Course>
				<Preferred>2</Preferred>
			</Cover>
		</DayOfWeekCover>
		<DayOfWeekCover>
			<Day>Wednesday</Day>
			<Cover>
				<Course>00045</Course>
				<Preferred>2</Preferred>
			</Cover>
		</DayOfWeekCover>
		<DayOfWeekCover>
			<Day>Saturday</Day>
			<Cover>
				<Course>00045</Course>
				<Preferred>2</Preferred>
			</Cover>
		</DayOfWeekCover>
		<DayOfWeekCover>
			<Day>Friday</Day>
			<Cover>
				<Course>00046</Course>
				<Preferred>2</Preferred>
			</Cover>
		</DayOfWeekCover>
		<DayOfWeekCover>
			<Day>Saturday</Day>
			<Cover>
				<Course>00047</Course>
				<Preferred>2</Preferred>
			</Cover>
		</DayOfWeekCover>
		<DayOfWeekCover>
			<Day>Sunday</Day>
			<Cover>
				<Course>00048</Course>
				<Preferred>2</Preferred>
			</Cover>
		</DayOfWeekCover>
		<DayOfWeekCover>
			<Day>Friday</Day>
			<Cover>
				<Course>00049</Course>
				<Preferred>1</Preferred>
			</Cover>
		</DayOfWeekCover>
		<DayOfWeekCover>
			<Day>Wednesday</Day>
			<Cover>
				<Course>00050</Course>
				<Preferred>1</Preferred>
			</Cover>
		</DayOfWeekCover>
		<DayOfWeekCover>
			<Day>Sunday</Day>
			<Cover>
				<Course>00050</Course>
				<Preferred>1</Preferred>
			</Cover>
		</DayOfWeekCover>
		<DayOfWeekCover>
			<Day>Thursday</Day>
			<Cover>
				<Course>00051</Course>
				<Preferred>1</Preferred>
			</Cover>
		</DayOfWeekCover>
		<DayOfWeekCover>
			<Day>Wednesday</Day>
			<Cover>
				<Course>00051</Course>
				<Preferred>1</Preferred>
			</Cover>
		</DayOfWeekCover>
		<DayOfWeekCover>
			<Day>Sunday</Day>
			<Cover>
				<Course>00052</Course>
				<Preferred>2</Preferred>
			</Cover>
		</DayOfWeekCover>
		<DayOfWeekCover>
			<Day>Tuesday</Day>
			<Cover>
				<Course>00052</Course>
				<Preferred>2</Preferred>
			</Cover>
		</DayOfWeekCover>
		<DayOfWeekCover>
			<Day>Thursday</Day>
			<Cover>
				<Course>00053</Course>
				<Preferred>2</Preferred>
			</Cover>
		</DayOfWeekCover>
		<DayOfWeekCover>
			<Day>Tuesday</Day>
			<Cover>
				<Course>00054</Course>
				<Preferred>1</Preferred>
			</Cover>
		</DayOfWeekCover>
		<DayOfWeekCover>
			<Day>Monday</Day>
			<Cover>
				<Course>00054</Course>
				<Preferred>1</Preferred>
			</Cover>
		</DayOfWeekCover>
		<DayOfWeekCover>
			<Day>Friday</Day>
			<Cover>
				<Course>00055</Course>
				<Preferred>2</Preferred>
			</Cover>
		</DayOfWeekCover>
		<DayOfWeekCover>
			<Day>Monday</Day>
			<Cover>
				<Course>00055</Course>
				<Preferred>2</Preferred>
			</Cover>
		</DayOfWeekCover>
		<DayOfWeekCover>
			<Day>Thursday</Day>
			<Cover>
				<Course>00056</Course>
				<Preferred>2</Preferred>
			</Cover>
		</DayOfWeekCover>
		<DayOfWeekCover>
			<Day>Sunday</Day>
			<Cover>
				<Course>00056</Course>
				<Preferred>2</Preferred>
			</Cover>
		</DayOfWeekCover>
		<DayOfWeekCover>
			<Day>Monday</Day>
			<Cover>
				<Course>00057</Course>
				<Preferred>1</Preferred>
			</Cover>
		</DayOfWeekCover>
		<DayOfWeekCover>
			<Day>Saturday</Day>
			<Cover>
				<Course>00057</Course>
				<Preferred>1</Preferred>
			</Cover>
		</DayOfWeekCover>
		<DayOfWeekCover>
			<Day>Tuesday</Day>
			<Cover>
				<Course>00058</Course>
				<Preferred>2</Preferred>
			</Cover>
		</DayOfWeekCover>
		<DayOfWeekCover>
			<Day>Friday</Day>
			<Cover>
				<Course>00058</Course>
				<Preferred>2</Preferred>
			</Cover>
		</DayOfWeekCover>
		<DayOfWeekCover>
			<Day>Thursday</Day>
			<Cover>
				<Course>00059</Course>
				<Preferred>1</Preferred>
			</Cover>
		</DayOfWeekCover>
		<DayOfWeekCover>
			<Day>Saturday</Day>
			<Cover>
				<Course>00060</Course>
				<Preferred>1</Preferred>
			</Cover>
		</DayOfWeekCover>
		<DayOfWeekCover>
			<Day>Sunday</Day>
			<Cover>
				<Course>00061</Course>
				<Preferred>2</Preferred>
			</Cover>
		</DayOfWeekCover>
		<DayOfWeekCover>
			<Day>Sunday</Day>
			<Cover>
				<Course>00062</Course>
				<Preferred>1</Preferred>
			</Cover>
		</DayOfWeekCover>
		<DayOfWeekCover>
			<Day>Friday</Day>
			<Cover>
				<Course>00063</Course>
				<Preferred>2</Preferred>
			</Cover>
		</DayOfWeekCover>
		<DayOfWeekCover>
			<Day>Sunday</Day>
			<Cover>
				<Course>00064</Course>
				<Preferred>1</Preferred>
			</Cover>
		</DayOfWeekCover>
		<DayOfWeekCover>
			<Day>Wednesday</Day>
			<Cover>
				<Course>00066</Course>
				<Preferred>1</Preferred>
			</Cover>
		</DayOfWeekCover>
		<DayOfWeekCover>
			<Day>Saturday</Day>
			<Cover>
				<Course>00068</Course>
				<Preferred>2</Preferred>
			</Cover>
		</DayOfWeekCover>
	</CoverRequirements>
	<CourseOffRequests>
		<CourseOff weight='1'>
			<CourseTypeID>00058</CourseTypeID>
			<TaID>23</TaID>
			<Date>Friday</Date>
		</CourseOff>
		<CourseOff weight='1'>
			<CourseTypeID>00034</CourseTypeID>
			<TaID>46</TaID>
			<Date>Monday</Date>
		</CourseOff>
		<CourseOff weight='1'>
			<CourseTypeID>00056</CourseTypeID>
			<TaID>7</TaID>
			<Date>Sunday</Date>
		</CourseOff>
		<CourseOff weight='1'>
			<CourseTypeID>00037</CourseTypeID>
			<TaID>26</TaID>
			<Date>Sunday</Date>
		</CourseOff>
		<CourseOff weight='1'>
			<CourseTypeID>00007</CourseTypeID>
			<TaID>7</TaID>
			<Date>Friday</Date>
		</CourseOff>
		<CourseOff weight='1'>
			<CourseTypeID>00019</CourseTypeID>
			<TaID>0</TaID>
			<Date>Monday</Date>
		</CourseOff>
		<CourseOff weight='1'>
			<CourseTypeID>00017</CourseTypeID>
			<TaID>24</TaID>
			<Date>Tuesday</Date>
		</CourseOff>
		<CourseOff weight='1'>
			<CourseTypeID>00045</CourseTypeID>
			<TaID>13</TaID>
			<Date>Saturday</Date>
		</CourseOff>
		<CourseOff weight='1'>
			<CourseTypeID>00040</CourseTypeID>
			<TaID>13</TaID>
			<Date>Tuesday</Date>
		</CourseOff>
		<CourseOff weight='1'>
			<CourseTypeID>00058</CourseTypeID>
			<TaID>27</TaID>
			<Date>Friday</Date>
		</CourseOff>
		<CourseOff weight='1'>
			<CourseTypeID>00020</CourseTypeID>
			<TaID>3</TaID>
			<Date>Wednesday</Date>
		</CourseOff>
		<CourseOff weight='1'>
			<CourseTypeID>00060</CourseTypeID>
			<TaID>44</TaID>
			<Date>Saturday</Date>
		</CourseOff>
		<CourseOff weight='1'>
			<CourseTypeID>00066</CourseTypeID>
			<TaID>7</TaID>
			<Date>Wednesday</Date>
		</CourseOff>
		<CourseOff weight='1'>
			<CourseTypeID>00055</CourseTypeID>
			<TaID>10</TaID>
			<Date>Monday</Date>
		</CourseOff>
		<CourseOff weight='1'>
			<CourseTypeID>00001</CourseTypeID>
			<TaID>29</TaID>
			<Date>Sunday</Date>
		</CourseOff>
		<CourseOff weight='1'>
			<CourseTypeID>00037</CourseTypeID>
			<TaID>40</TaID>
			<Date>Sunday</Date>
		</CourseOff>
		<CourseOff weight='1'>
			<CourseTypeID>00024</CourseTypeID>
			<TaID>2</TaID>
			<Date>Saturday</Date>
		</CourseOff>
		<CourseOff weight='1'>
			<CourseTypeID>00050</CourseTypeID>
			<TaID>30</TaID>
			<Date>Sunday</Date>
		</CourseOff>
		<CourseOff weight='1'>
			<CourseTypeID>00059</CourseTypeID>
			<TaID>40</TaID>
			<Date>Thursday</Date>
		</CourseOff>
		<CourseOff weight='1'>
			<CourseTypeID>00008</CourseTypeID>
			<TaID>18</TaID>
			<Date>Monday</Date>
		</CourseOff>
		<CourseOff weight='1'>
			<CourseTypeID>00024</CourseTypeID>
			<TaID>44</TaID>
			<Date>Saturday</Date>
		</CourseOff>
		<CourseOff weight='1'>
			<CourseTypeID>00024</CourseTypeID>
			<TaID>36</TaID>
			<Date>Saturday</Date>
		</CourseOff>
		<CourseOff weight='1'>
			<CourseTypeID>00051</CourseTypeID>
			<TaID>41</TaID>
			<Date>Wednesday</Date>
		</CourseOff>
		<CourseOff weight='1'>
			<CourseTypeID>00064</CourseTypeID>
			<TaID>19</TaID>
			<Date>Sunday</Date>
		</CourseOff>
		<CourseOff weight='1'>
			<CourseTypeID>00039</CourseTypeID>
			<TaID>3</TaID>
			<Date>Wednesday</Date>
		</CourseOff>
	</CourseOffRequests>
	<CourseOnRequests>
		<CourseOn weight='1'>
			<CourseTypeID>00038</CourseTypeID>
			<TaID>49</TaID>
			<Date>Monday</Date>
		</CourseOn>
		<CourseOn weight='1'>
			<CourseTypeID>00001</CourseTypeID>
			<TaID>10</TaID>
			<Date>Sunday</Date>
		</CourseOn>
		<CourseOn weight='1'>
			<CourseTypeID>00028</CourseTypeID>
			<TaID>14</TaID>
			<Date>Sunday</Date>
		</CourseOn>
		<CourseOn weight='1'>
			<CourseTypeID>00026</CourseTypeID>
			<TaID>10</TaID>
			<Date>Wednesday</Date>
		</CourseOn>
		<CourseOn weight='1'>
			<CourseTypeID>00037</CourseTypeID>
			<TaID>20</TaID>
			<Date>Sunday</Date>
		</CourseOn>
		<CourseOn weight='1'>
			<CourseTypeID>00034</CourseTypeID>
			<TaID>36</TaID>
			<Date>Monday</Date>
		</CourseOn>
		<CourseOn weight='1'>
			<CourseTypeID>00001</CourseTypeID>
			<TaID>18</TaID>
			<Date>Sunday</Date>
		</CourseOn>
		<CourseOn weight='1'>
			<CourseTypeID>00056</CourseTypeID>
			<TaID>16</TaID>
			<Date>Sunday</Date>
		</CourseOn>
		<CourseOn weight='1'>
			<CourseTypeID>00017</CourseTypeID>
			<TaID>19</TaID>
			<Date>Tuesday</Date>
		</CourseOn>
		<CourseOn weight='1'>
			<CourseTypeID>00055</CourseTypeID>
			<TaID>20</TaID>
			<Date>Monday</Date>
		</CourseOn>
		<CourseOn weight='1'>
			<CourseTypeID>00047</CourseTypeID>
			<TaID>46</TaID>
			<Date>Saturday</Date>
		</CourseOn>
		<CourseOn weight='1'>
			<CourseTypeID>00059</CourseTypeID>
			<TaID>44</TaID>
			<Date>Thursday</Date>
		</CourseOn>
		<CourseOn weight='1'>
			<CourseTypeID>00037</CourseTypeID>
			<TaID>21</TaID>
			<Date>Sunday</Date>
		</CourseOn>
		<CourseOn weight='1'>
			<CourseTypeID>00062</CourseTypeID>
			<TaID>4</TaID>
			<Date>Sunday</Date>
		</CourseOn>
		<CourseOn weight='1'>
			<CourseTypeID>00062</CourseTypeID>
			<TaID>13</TaID>
			<Date>Sunday</Date>
		</CourseOn>
		<CourseOn weight='1'>
			<CourseTypeID>00053</CourseTypeID>
			<TaID>15</TaID>
			<Date>Thursday</Date>
		</CourseOn>
		<CourseOn weight='1'>
			<CourseTypeID>00022</CourseTypeID>
			<TaID>46</TaID>
			<Date>Tuesday</Date>
		</CourseOn>
		<CourseOn weight='1'>
			<CourseTypeID>00047</CourseTypeID>
			<TaID>27</TaID>
			<Date>Saturday</Date>
		</CourseOn>
		<CourseOn weight='1'>
			<CourseTypeID>00049</CourseTypeID>
			<TaID>26</TaID>
			<Date>Friday</Date>
		</CourseOn>
		<CourseOn weight='1'>
			<CourseTypeID>00047</CourseTypeID>
			<TaID>35</TaID>
			<Date>Saturday</Date>
		</CourseOn>
		<CourseOn weight='1'>
			<CourseTypeID>00001</CourseTypeID>
			<TaID>25</TaID>
			<Date>Sunday</Date>
		</CourseOn>
		<CourseOn weight='1'>
			<CourseTypeID>00047</CourseTypeID>
			<TaID>40</TaID>
			<Date>Saturday</Date>
		</CourseOn>
		<CourseOn weight='1'>
			<CourseTypeID>00012</CourseTypeID>
			<TaID>32</TaID>
			<Date>Thursday</Date>
		</CourseOn>
		<CourseOn weight='1'>
			<CourseTypeID>00044</CourseTypeID>
			<TaID>48</TaID>
			<Date>Friday</Date>
		</CourseOn>
		<CourseOn weight='1'>
			<CourseTypeID>00068</CourseTypeID>
			<TaID>37</TaID>
			<Date>Saturday</Date>
		</CourseOn>
	</CourseOnRequests>
</SchedulingPeriod>